sifdecoder -A pc64.lnx.gfo -st   STEENBRA

 Problem name: STEENBRA

 Double precision version will be formed

 The objective function uses 1 nonlinear group
 
 There are 108 linear equality constraints
 
 There are 432 variables bounded only from below 
 
 
 File successfully decoded
 CUTEST: tools (double precision version) compiled successfully
 CUTEst: ipopt (double precision version) compiled successfully

******************************************************************************
This program contains Ipopt, a library for large-scale nonlinear optimization.
 Ipopt is released as open source code under the Eclipse Public License (EPL).
         For more information visit http://projects.coin-or.org/Ipopt
******************************************************************************

This is Ipopt version trunk, running with linear solver ma57.

Number of nonzeros in equality constraint Jacobian...:      864
Number of nonzeros in inequality constraint Jacobian.:        0
Number of nonzeros in Lagrangian Hessian.............:     2808

Reallocating memory for MA57: lfact (137829)
Total number of variables............................:      432
                     variables with only lower bounds:      432
                variables with lower and upper bounds:        0
                     variables with only upper bounds:        0
Total number of equality constraints.................:      108
Total number of inequality constraints...............:        0
        inequality constraints with only lower bounds:        0
   inequality constraints with lower and upper bounds:        0
        inequality constraints with only upper bounds:        0

iter    objective    inf_pr   inf_du lg(mu)  ||d||  lg(rg) alpha_du alpha_pr  ls
   0  1.7282344e+00 2.00e+03 1.00e+00  -1.0 0.00e+00    -  0.00e+00 0.00e+00   0
   1  1.7285623e+00 2.00e+03 1.00e+00  -1.0 4.97e+02    -  1.99e-05 1.99e-05h  1
   2  2.1926761e+00 2.00e+03 2.19e+00  -1.0 1.97e+03    -  1.00e-05 9.47e-05h  1
   3  3.9080406e+00 2.00e+03 2.80e+00  -1.0 2.00e+03    -  8.53e-05 2.52e-04h  1
   4  9.6801948e+00 2.00e+03 3.34e+00  -1.0 2.00e+03    -  1.53e-04 8.01e-04h  1
   5  2.8928502e+01 1.99e+03 3.74e+00  -1.0 2.00e+03    -  8.37e-04 2.63e-03h  1
   6  2.5572924e+03 1.50e+03 1.58e+01  -1.0 1.99e+03    -  1.76e-03 2.48e-01h  1
   7  3.7393089e+03 1.30e+03 1.38e+01  -1.0 1.50e+03    -  8.93e-02 1.30e-01h  1
   8  4.0936187e+03 1.25e+03 1.33e+01  -1.0 1.30e+03    -  1.45e-01 3.89e-02h  1
   9  5.5835921e+03 1.06e+03 1.13e+01  -1.0 1.25e+03    -  2.13e-01 1.51e-01h  1
iter    objective    inf_pr   inf_du lg(mu)  ||d||  lg(rg) alpha_du alpha_pr  ls
  10  7.4149221e+03 8.64e+02 9.14e+00  -1.0 1.06e+03    -  6.55e-03 1.88e-01h  1
  11  1.1132384e+04 5.13e+02 5.43e+00  -1.0 8.60e+02    -  4.13e-02 4.06e-01h  1
  12  1.2006060e+04 4.38e+02 4.64e+00  -1.0 5.03e+02    -  1.24e-01 1.45e-01h  1
  13  1.7415558e+04 2.62e-08 1.80e+00  -1.0 4.03e+02    -  2.06e-02 1.00e+00h  1
  14  1.7316938e+04 2.01e-08 1.44e+00  -1.0 2.32e+02    -  1.85e-01 2.24e-01f  1
  15  1.7021948e+04 1.67e-09 9.25e-01  -1.0 1.98e+02    -  1.18e-01 1.00e+00f  1
  16  1.7010566e+04 5.78e-10 4.94e-01  -1.0 5.11e+01    -  4.71e-01 6.42e-01f  1
  17  1.6970407e+04 3.26e-10 4.11e-01  -1.7 5.57e+01    -  1.61e-01 9.28e-01f  1
  18  1.6966490e+04 1.65e-10 1.05e-01  -1.7 2.08e+01    -  7.41e-01 1.00e+00f  1
  19  1.6959077e+04 2.60e-11 5.87e-02  -2.5 6.41e+00    -  4.07e-01 1.00e+00f  1
iter    objective    inf_pr   inf_du lg(mu)  ||d||  lg(rg) alpha_du alpha_pr  ls
  20  1.6958781e+04 7.88e-11 2.85e-08  -2.5 2.48e+00    -  1.00e+00 1.00e+00f  1
  21  1.6957732e+04 3.22e-13 1.50e-09  -3.8 8.94e-01    -  1.00e+00 1.00e+00f  1
  22  1.6957675e+04 2.47e-13 1.85e-11  -5.7 1.89e-01    -  1.00e+00 1.00e+00f  1
  23  1.6957675e+04 2.82e-13 1.99e-12  -8.6 1.99e-02    -  1.00e+00 1.00e+00f  1

Number of Iterations....: 23

                                   (scaled)                 (unscaled)
Objective...............:   1.6957674661465448e+04    1.6957674661465448e+04
Dual infeasibility......:   1.9866205432245509e-12    1.9866205432245509e-12
Constraint violation....:   2.8166027437195746e-13    2.8166027437195746e-13
Complementarity.........:   2.7395612989715841e-09    2.7395612989715841e-09
Overall NLP error.......:   2.7395612989715841e-09    2.7395612989715841e-09


Number of objective function evaluations             = 24
Number of objective gradient evaluations             = 24
Number of equality constraint evaluations            = 24
Number of inequality constraint evaluations          = 0
Number of equality constraint Jacobian evaluations   = 24
Number of inequality constraint Jacobian evaluations = 0
Number of Lagrangian Hessian evaluations             = 23
Total CPU secs in IPOPT (w/o function evaluations)   =      0.366
Total CPU secs in NLP function evaluations           =      0.016

EXIT: Optimal Solution Found.

************************ CUTEst statistics ************************


 Package used            :  IPOPT
 Problem                 :  STEENBRA  
 # variables             =             432
 # constraints           =             108
 # objective functions   =        0.4900000E+02
 # objective gradients   =        0.2500000E+02
 # objective Hessians    =        0.2400000E+02
 # Hessian-vector prdct  =        0.0000000E+00
 # constraints functions =        0.5000000E+02
 # constraints gradients =        0.2600000E+02
 # constraints Hessians  =        0.2400000E+02
 Exit code               =               0
 Final f                 =        1.6957674661465448D+04
 Bounds feasibility      =        9.5211250903301874D-09
 Set up time             =            0.02 seconds
 Solve time              =            0.90 seconds


******************************************************************

